SAT
Model:
1 -> false
2 -> false
3 -> false
4 -> true
5 -> true
6 -> false
7 -> false
8 -> false
9 -> true
10 -> false
11 -> true
12 -> true
13 -> true
14 -> false
15 -> true
16 -> true
17 -> true
18 -> true
19 -> true
20 -> false
21 -> true
22 -> false
23 -> false
24 -> false
25 -> false
26 -> true
27 -> true
28 -> true
29 -> false
30 -> false
31 -> false
32 -> true
33 -> false
34 -> true
35 -> true
36 -> true
37 -> true
38 -> true
39 -> true
40 -> false
41 -> false
42 -> true
43 -> true
44 -> false
45 -> true
46 -> true
47 -> false
48 -> true
49 -> false
50 -> false
